sat
( (V0 4)
  (V1 1)
  (V2 2)
  (V3 3)
  (V4 5)
  (V5 7)
  (V6 6)
  (V7 6)
  (V8 4)
  (V9 7)
  (V10 2)
  (V11 1)
  (V12 3)
  (V13 5)
  (V14 5)
  (V15 2)
  (V16 1)
  (V17 7)
  (V18 4)
  (V19 6)
  (V20 3)
  (V21 7)
  (V22 3)
  (V23 4)
  (V24 1)
  (V25 6)
  (V26 5)
  (V27 2)
  (V28 3)
  (V29 7)
  (V30 6)
  (V31 5)
  (V32 2)
  (V33 1)
  (V34 4)
  (V35 2)
  (V36 5)
  (V37 3)
  (V38 6)
  (V39 7)
  (V40 4)
  (V41 1)
  (V42 1)
  (V43 6)
  (V44 5)
  (V45 4)
  (V46 3)
  (V47 2)
  (V48 7) )